NAME : 107att532.13464.tour
COMMENT : Length = 13464
COMMENT : Found by LKH [Keld Helsgaun] Wed Jun  5 21:42:41 2013
TYPE : TOUR
DIMENSION : 107
TOUR_SECTION
2
5
19
27
77
160
141
135
134
91
56
50
76
159
208
284
299
308
303
294
312
367
374
395
394
393
371
349
355
301
235
171
128
62
95
98
173
139
117
274
336
330
251
238
239
361
347
311
220
240
256
314
378
406
422
457
466
480
511
517
527
514
510
499
479
443
390
401
377
389
432
471
504
491
478
441
449
462
492
519
531
495
467
456
461
433
410
392
402
388
381
408
425
434
342
306
307
297
269
225
148
138
90
45
24
15
6
-1
EOF
